26529.81,49.23,54.22
28430.59,45.94,50.59
25229.56,51.77,57.01
27152.61,48.11,52.98
25005.35,52.24,57.52
24825.59,52.61,57.94
29781.57,43.86,48.3
25027.36,52.19,57.47
25176.27,51.88,57.13
29930.03,43.64,48.06
24420.64,53.49,58.9
26580.6,49.14,54.12
26003.95,50.23,55.32
26425.81,49.43,54.43
25867.95,50.49,55.61
25988.85,50.26,55.35
27378.25,47.71,52.54
24331.05,53.68,59.12
25711.86,50.8,55.94
26036.05,50.17,55.25
